
Gurobi 10.0.1 (linux64) logging started Sun Nov 26 16:15:04 2023

Set parameter LogFile to value "ArtificialInstance/ExperimentV2/S3T3K3/BaRo/gurobi91.txt"
Gurobi Optimizer version 10.0.1 build v10.0.1rc0 (linux64)

CPU model: AMD EPYC 7H12 64-Core Processor, instruction set [SSE2|AVX|AVX2]
Thread count: 128 physical cores, 128 logical processors, using up to 32 threads

Academic license 656792 - for non-commercial use only - registered to b.___@student.vu.nl
Optimize a model with 2763 rows, 4161 columns and 14403 nonzeros
Model fingerprint: 0x41fd92d0
Variable types: 1 continuous, 4160 integer (4160 binary)
Coefficient statistics:
  Matrix range     [1e+00, 4e+01]
  Objective range  [1e+00, 2e+01]
  Bounds range     [1e+00, 1e+00]
  RHS range        [1e+00, 1e+00]
Found heuristic solution: objective 652.8505404
Presolve time: 0.02s
Presolved: 2763 rows, 4161 columns, 14403 nonzeros
Variable types: 1 continuous, 4160 integer (4160 binary)

Root relaxation: objective 4.788830e+01, 3020 iterations, 0.12 seconds (0.10 work units)

    Nodes    |    Current Node    |     Objective Bounds      |     Work
 Expl Unexpl |  Obj  Depth IntInf | Incumbent    BestBd   Gap | It/Node Time

     0     0   47.88830    0  616  652.85054   47.88830  92.7%     -    0s
H    0     0                     271.8233188   47.88830  82.4%     -    0s
H    0     0                      93.8151361   47.88830  49.0%     -    0s
H    0     0                      92.1958717   55.14725  40.2%     -    0s
     0     0   55.14725    0  762   92.19587   55.14725  40.2%     -    0s
H    0     0                      89.0468508   55.14725  38.1%     -    0s
H    0     0                      86.2338776   61.63201  28.5%     -    0s
     0     0   61.63201    0  814   86.23388   61.63201  28.5%     -    0s
     0     0   61.63201    0  816   86.23388   61.63201  28.5%     -    0s
     0     0   62.74005    0  953   86.23388   62.74005  27.2%     -    1s
     0     0   62.75231    0  927   86.23388   62.75231  27.2%     -    1s
     0     0   62.75447    0  949   86.23388   62.75447  27.2%     -    1s
H    0     0                      85.9551444   62.75447  27.0%     -    1s
     0     0   64.55302    0  802   85.95514   64.55302  24.9%     -    1s
H    0     0                      84.5962053   64.74395  23.5%     -    1s
     0     0   64.74395    0  852   84.59621   64.74395  23.5%     -    1s
     0     0   64.83011    0  934   84.59621   64.83011  23.4%     -    1s
H    0     0                      83.5652033   64.83011  22.4%     -    1s
     0     0   64.83011    0  919   83.56520   64.83011  22.4%     -    1s
     0     0   65.01932    0  857   83.56520   65.01932  22.2%     -    1s
     0     0   65.15834    0  924   83.56520   65.15834  22.0%     -    1s
     0     0   65.19277    0  931   83.56520   65.19277  22.0%     -    1s
     0     0   65.19797    0  912   83.56520   65.19797  22.0%     -    1s
H    0     0                      81.0959670   65.19797  19.6%     -    1s
     0     0   65.23500    0  989   81.09597   65.23500  19.6%     -    1s
     0     0   65.33425    0  983   81.09597   65.33425  19.4%     -    1s
     0     0   65.39106    0  949   81.09597   65.39106  19.4%     -    1s
     0     0   65.39265    0  962   81.09597   65.39265  19.4%     -    1s
     0     0   66.15757    0  851   81.09597   66.15757  18.4%     -    2s
     0     0   66.29030    0  947   81.09597   66.29030  18.3%     -    2s
     0     0   66.32278    0  889   81.09597   66.32278  18.2%     -    2s
     0     0   66.32679    0  974   81.09597   66.32679  18.2%     -    2s
     0     0   66.39334    0  935   81.09597   66.39334  18.1%     -    2s
H    0     0                      80.9462817   66.40729  18.0%     -    2s
     0     0   66.40729    0  916   80.94628   66.40729  18.0%     -    2s
     0     0   66.42178    0  932   80.94628   66.42178  17.9%     -    2s
     0     0   66.42190    0  934   80.94628   66.42190  17.9%     -    2s
     0     0   66.42190    0  931   80.94628   66.42190  17.9%     -    2s
     0     0   66.42327    0  936   80.94628   66.42327  17.9%     -    2s
     0     0   66.60883    0  842   80.94628   66.60883  17.7%     -    2s
     0     0   66.61929    0  841   80.94628   66.61929  17.7%     -    2s
     0     0   66.61929    0  864   80.94628   66.61929  17.7%     -    2s
     0     0   66.73009    0  845   80.94628   66.73009  17.6%     -    2s
     0     0   66.82094    0  897   80.94628   66.82094  17.5%     -    2s
     0     0   66.82294    0  907   80.94628   66.82294  17.4%     -    2s
     0     0   66.84865    0  866   80.94628   66.84865  17.4%     -    2s
     0     0   66.85365    0  916   80.94628   66.85365  17.4%     -    2s
     0     0   66.86065    0  886   80.94628   66.86065  17.4%     -    2s
     0     0   66.86065    0  835   80.94628   66.86065  17.4%     -    2s
     0     2   66.86065    0  831   80.94628   66.86065  17.4%     -    3s
H   31    56                      80.5630639   68.61377  14.8%   979    4s
   159   152   75.37779    9  637   80.56306   70.15377  12.9%   588    5s
H  161   152                      78.4027396   70.15377  10.5%   583    5s
*  602   183              19      78.1303124   70.64507  9.58%   316    6s

Cutting planes:
  Gomory: 5
  Zero half: 279
  RLT: 161

Explored 1353 nodes (312071 simplex iterations) in 7.89 seconds (7.89 work units)
Thread count was 32 (of 128 available processors)

Solution count 10: 78.1303 78.4027 80.5631 ... 89.0469

Optimal solution found (tolerance 1.00e-04)
Best objective 7.813031242216e+01, best bound 7.813031242216e+01, gap 0.0000%
